width,height
5,25
1,6
2,1
1,21
2,22
4,13
2,23
3,9
1,22
1,12
4,4
3,22
4,5
2,23
4,17
3,19
1,9
2,11
1,10
3,15
2,18
5,8
3,5
3,19
4,20
2,15
1,14
5,20
3,12
4,17
4,7
1,8
5,18
1,14
4,8
4,12
2,14
5,23
2,16
3,19
3,20
5,8
2,22
1,3
5,13
3,14
3,7
2,21
4,8
1,8
2,22
3,2
5,14
5,7
5,12
4,19
4,4
5,22
4,9
4,7
4,12
3,5
1,9
3,12
2,22
5,10
2,4
4,24
3,23
1,16
2,23
1,5
1,1
2,24
2,23
2,19
5,22
5,23
5,19
4,11
1,9
2,5
1,12
4,6
2,20
2,13
2,8
4,20
4,21
3,16
4,13
5,8
4,4
3,24
3,10
1,19
4,22
5,13
5,17
5,7
1,18
